networks/zoo_20_33/lower/zoo_20_33-lower.txt
Number of groups: 7
Flow 3: {1 4 0} {4 17 0} 
Flow 7: {2 4 0} {4 5 0} {5 18 0} 
Flow 14: {3 4 0} {4 7 0} {7 20 0} 
Flow 19: {4 6 0} {6 19 0} 
Flow 21: {5 4 0} {4 1 0} {1 14 0} 
Flow 27: {6 4 0} {4 3 0} {3 16 0} 
Flow 30: {7 4 0} {4 2 0} {2 15 0} 
Time taken running everything: 1 seconds
