networks/zoo_20_33/lower/zoo_20_33-lower.sol
<?xml version = "1.0" encoding="UTF-8" standalone="yes"?>
<CPLEXSolution version="1.2">
 <header
   problemName="networks/zoo_20_33/zoo_20_33-lower.lp"
   solutionName="incumbent"
   solutionIndex="-1"
   objectiveValue="7"
   solutionTypeValue="3"
   solutionTypeString="primal"
   solutionStatusValue="101"
   solutionStatusString="integer optimal solution"
   solutionMethodString="mip"
   primalFeasible="1"
   dualFeasible="1"
   MIPNodes="0"
   MIPIterations="46"
   writeLevel="3"/>
 <quality
   epInt="1.0000000000000001e-05"
   epRHS="9.9999999999999995e-07"
   maxIntInfeas="0"
   maxPrimalInfeas="0"
   maxX="1"
   maxSlack="1"/>
 <variables>
  <variable name="Y(3,4)" index="31" value="1"/>
  <variable name="Y(7,5)" index="88" value="1"/>
  <variable name="Y(14,7)" index="188" value="1"/>
  <variable name="Y(19,6)" index="257" value="1"/>
  <variable name="Y(21,1)" index="280" value="1"/>
  <variable name="Y(27,3)" index="366" value="1"/>
  <variable name="Y(30,2)" index="407" value="1"/>
  <variable name="X(1,4,3)" index="464" value="1"/>
  <variable name="X(1,14,21)" index="515" value="1"/>
  <variable name="X(2,4,7)" index="534" value="1"/>
  <variable name="X(2,15,30)" index="590" value="1"/>
  <variable name="X(3,4,14)" index="607" value="1"/>
  <variable name="X(3,16,27)" index="653" value="1"/>
  <variable name="X(4,1,21)" index="680" value="1"/>
  <variable name="X(4,2,30)" index="722" value="1"/>
  <variable name="X(4,3,27)" index="752" value="1"/>
  <variable name="X(4,5,7)" index="765" value="1"/>
  <variable name="X(4,6,19)" index="810" value="1"/>
  <variable name="X(4,7,14)" index="838" value="1"/>
  <variable name="X(4,17,3)" index="860" value="1"/>
  <variable name="X(5,4,21)" index="911" value="1"/>
  <variable name="X(5,18,7)" index="930" value="1"/>
  <variable name="X(6,4,27)" index="983" value="1"/>
  <variable name="X(6,19,19)" index="1008" value="1"/>
  <variable name="X(7,4,30)" index="1052" value="1"/>
  <variable name="X(7,20,14)" index="1069" value="1"/>
 </variables>
</CPLEXSolution>
